77      1       
1       
0       0       22      2       3       4       5       6       7       8       10      11      12      13      14      15      17      19      20      21      22      24      
 25      27      31      
8       1       15      9       26      29      30      34      35      36      37      38      39      54      56      57      71      76      
5       1       19      18      34      38      40      41      42      43      44      47      48      55      56      57      67      69      71      73      75      76      
 
7       1       19      23      34      37      39      40      41      43      48      49      52      54      55      64      69      71      72      74      75      76      
 
6       1       15      23      32      37      39      40      42      47      48      53      54      57      68      72      74      75      
4       1       13      26      28      33      40      42      48      53      55      64      66      69      73      74      
9       1       13      26      28      39      41      46      48      53      55      56      64      66      69      71      
3       1       14      30      35      41      43      44      46      48      54      68      69      70      71      72      73      
1       1       6       16      41      49      55      66      68      
6       1       19      45      49      51      52      53      54      55      61      62      63      64      65      66      68      69      70      71      72      74      
 
9       1       16      41      42      43      45      46      47      52      53      56      60      64      65      66      68      71      72      
3       1       13      37      38      40      41      42      52      53      54      65      67      68      74      75      
1       1       12      34      37      38      41      42      46      49      52      54      55      65      69      
3       1       9       28      38      43      49      54      55      68      72      74      
3       1       16      41      47      50      51      52      54      55      64      65      66      68      69      70      71      73      74      
1       1       10      28      42      46      48      51      52      53      64      69      72      
7       1       11      41      43      45      46      47      49      52      54      65      67      69      
5       1       11      37      46      52      53      54      58      63      64      68      70      72      
7       1       11      40      44      51      54      55      57      63      64      65      67      75      
2       1       10      42      44      47      51      65      67      68      69      71      73      
3       1       10      41      46      50      51      55      62      65      66      71      72      
5       1       7       41      43      47      49      52      64      69      
5       1       8       45      51      56      60      61      66      67      70      
9       1       8       42      46      51      60      62      64      68      71      
2       1       5       37      40      52      64      67      
1       1       8       44      51      52      61      62      63      65      72      
3       1       7       40      53      60      63      66      69      71      
7       1       8       47      50      60      61      63      65      67      70      
6       1       7       43      60      62      64      65      67      70      
4       1       8       50      51      52      60      63      64      65      67      
10      1       7       46      52      60      62      63      65      71      
4       1       8       59      60      61      62      64      67      69      71      
2       1       5       41      50      52      60      68      
7       1       6       50      53      60      62      63      68      
4       1       6       50      51      60      61      62      66      
8       1       6       50      60      63      64      68      73      
10      1       4       50      60      61      66      
3       1       4       50      61      64      66      
8       1       4       50      60      61      62      
3       1       2       46      62      
10      1       3       59      61      63      
2       1       2       50      63      
7       1       2       50      51      
6       1       2       50      60      
3       1       2       50      73      
10      1       2       59      61      
6       1       2       59      62      
4       1       2       59      65      
10      1       2       59      60      
8       1       1       59      
5       1       1       59      
2       1       1       59      
3       1       1       59      
8       1       1       59      
10      1       1       60      
1       1       1       63      
1       1       1       60      
1       1       1       62      
2       1       1       77      
7       1       1       77      
3       1       1       77      
10      1       1       77      
5       1       1       77      
10      1       1       77      
4       1       1       77      
3       1       1       77      
4       1       1       77      
5       1       1       77      
9       1       1       77      
6       1       1       77      
8       1       1       77      
7       1       1       77      
6       1       1       77      
5       1       1       77      
9       1       1       77      
10      1       1       77      
0       0       0       
